StudentsNr = 10;
InstructorsNr = 51;
DaysNr = 1;
SlotsPerDay = 15;
AvailabilitySlotsLenght = 5;
RoomNr = 1;
ProgrammNr = 1;
DegreeNr = 2;
RolesNr = 2;
CoursesNr = 4;
InstructorsProgramm = [{1}, {1}, {1}, {1}, {1}, {1}, {1}, {1}, {1}, {1}, {1}, {1}, {1}, {1}, {1}, {1}, {1}, {1}, {1}, {1}, {1}, {1}, {1}, {1}, {1}, {1}, {1}, {1}, {1}, {1}, {1}, {1}, {1}, {1}, {1}, {1}, {1}, {1}, {1}, {1}, {1}, {1}, {1}, {1}, {1}, {1}, {1}, {1}, {1}, {1}, {1}];
InstructorRolesPerProgramm = [|{1, 3, 6, 7, 12, 13, 15, 16, 22, 25, 27, 31, 32, 33, 38, 42, 46, 49, 50}, {3, 5, 7, 11, 12, 15, 20, 22, 28, 30, 31, 32, 33, 34, 36, 40, 43, 49, 50}|];
InstructorsAvailability = [|1, 1, 0, |0, 1, 1, |0, 1, 1, |0, 1, 1, |1, 1, 1, |0, 0, 0, |1, 1, 1, |1, 1, 1, |1, 0, 1, |0, 1, 1, |0, 1, 1, |0, 1, 1, |1, 1, 1, |1, 0, 0, |0, 0, 0, |0, 1, 1, |0, 0, 0, |1, 0, 1, |1, 0, 1, |1, 1, 1, |1, 1, 1, |1, 1, 1, |1, 1, 1, |1, 1, 0, |1, 1, 0, |1, 0, 1, |0, 0, 1, |1, 1, 1, |1, 0, 1, |0, 1, 1, |1, 1, 1, |0, 1, 1, |1, 1, 1, |1, 0, 1, |1, 1, 1, |0, 0, 1, |1, 1, 1, |1, 0, 0, |0, 1, 1, |0, 0, 0, |0, 1, 0, |1, 1, 1, |1, 1, 1, |1, 1, 1, |0, 1, 1, |1, 0, 0, |1, 1, 1, |0, 1, 1, |0, 0, 1, |0, 0, 1, |1, 1, 1|];
StudentsProgramm = [1, 1, 1, 1, 1, 1, 1, 1, 1, 1];
StudentsDegree = [1, 2, 2, 1, 1, 2, 1, 1, 1, 2];
StudentsSupervisorId = [4, 9, 1, 49, 16, 43, 32, 45, 28, 15];
StudentsCourseIds = [{2}, {2, 3, 4}, {1, 3, 4}, {2}, {2}, {2, 3, 4}, {4}, {4}, {2}, {2, 3, 4}];
StudentsAvailability = [|0, 1, 1, |0, 0, 1, |0, 0, 1, |1, 1, 1, |1, 1, 1, |1, 1, 1, |1, 1, 1, |0, 1, 1, |0, 0, 0, |1, 1, 1|];
TheoryticalMinCard = [0, 1, 0, 0, 0, 0, 0, 0, 0, 0];
CoursesInstructorIds = [{5, 7, 8, 15, 17, 43}, {1, 4, 5, 13, 16, 19, 20, 23, 28, 31, 35, 38, 43, 44, 45}, {1, 2, 3, 4, 5, 8, 11, 14, 16, 18, 19, 22, 24, 25, 28, 29, 30, 33, 35, 49, 50}, {2, 3, 12, 19, 22, 24, 41, 45, 51}];
RolesDemands = [6, 17];
RolesContinuity = [];
ExamLen = [2, 2, 2, 2, 2, 2, 2, 2, 2, 2];
LunchTsMinLen = 0;
LunchStarts = [6..8];
SupervisorAvailable = 5;
OptimalLunchLenght = [0, 1];
OptimalStartTs = [2, 1];
OptimalFinishTs = [2, 15];
MinimizeRooms = 0;
RolesSoftContinuity = [|1, 2|3, 2|];
SameDegreeInRoom = 20;
Mergeability = 2;
